cost: 1118.87
Route 1:           0   14   12    4    3   38   13   24    0
Route 2:           0   43   49    2   42    0
Route 3:           0   33   21   35   39   10   23   17   26    0
Route 4:           0    8   15    5   28    0
Route 5:           0   31    1   46    9   36    0
Route 6:           0   47   25   11   32    6   29   18    0
Route 7:           0   40   50   20   16    0
Route 8:           0   45   27   22   37   30   44    0
Route 9:           0   48   41    7   19   34    0
